c Grid graph 4x15
p edge 60 101
e 1 2
e 1 16
e 2 3
e 2 17
e 3 4
e 3 18
e 4 5
e 4 19
e 5 6
e 5 20
e 6 7
e 6 21
e 7 8
e 7 22
e 8 9
e 8 23
e 9 10
e 9 24
e 10 11
e 10 25
e 11 12
e 11 26
e 12 13
e 12 27
e 13 14
e 13 28
e 14 15
e 14 29
e 15 30
e 16 17
e 16 31
e 17 18
e 17 32
e 18 19
e 18 33
e 19 20
e 19 34
e 20 21
e 20 35
e 21 22
e 21 36
e 22 23
e 22 37
e 23 24
e 23 38
e 24 25
e 24 39
e 25 26
e 25 40
e 26 27
e 26 41
e 27 28
e 27 42
e 28 29
e 28 43
e 29 30
e 29 44
e 30 45
e 31 32
e 31 46
e 32 33
e 32 47
e 33 34
e 33 48
e 34 35
e 34 49
e 35 36
e 35 50
e 36 37
e 36 51
e 37 38
e 37 52
e 38 39
e 38 53
e 39 40
e 39 54
e 40 41
e 40 55
e 41 42
e 41 56
e 42 43
e 42 57
e 43 44
e 43 58
e 44 45
e 44 59
e 45 60
e 46 47
e 47 48
e 48 49
e 49 50
e 50 51
e 51 52
e 52 53
e 53 54
e 54 55
e 55 56
e 56 57
e 57 58
e 58 59
e 59 60
